networks/zoo_34_163/zoo_34_163-lower.txt
Number of groups: 22
Flow 2: {1 3 0} {3 4 0} {4 21 0} 
Flow 12: {2 3 0} {3 6 0} {6 13 0} {13 30 0} 
Flow 18: {6 12 0} {12 8 0} {8 25 0} 
Flow 25: {12 15 0} {15 32 0} 
Flow 28: {4 3 0} {3 20 0} 
Flow 37: {5 10 0} {10 13 0} {13 6 0} 
Flow 39: {10 11 0} {11 7 0} {7 24 0} 
Flow 64: {7 11 0} {11 28 0} 
Flow 77: {8 12 0} {12 14 0} 
Flow 85: {9 12 0} {12 13 0} 
Flow 89: {3 1 0} {1 18 0} 
Flow 102: {11 12 0} {12 17 0} {17 34 0} 
Flow 116: {12 16 0} {16 33 0} 
Flow 122: {13 12 0} {12 9 0} {9 26 0} 
Flow 126: {13 14 0} {14 31 0} 
Flow 131: {14 12 0} {12 29 0} 
Flow 132: {14 13 0} 
Flow 133: {15 12 0} {12 6 0} {6 3 0} {3 2 0} {2 19 0} 
Flow 140: {15 13 0} {13 10 0} {10 27 0} 
Flow 146: {16 12 0} 
Flow 148: {16 13 0} 
Flow 158: {17 12 0} {12 11 0} {11 10 0} {10 5 0} {5 22 0} 
Time taken running everything: 0 seconds
