networks/zoo_34_163/zoo_34_163-lower.sol
<?xml version = "1.0" encoding="UTF-8" standalone="yes"?>
<CPLEXSolution version="1.2">
 <header
   problemName="networks/zoo_34_163/zoo_34_163-lower.lp"
   solutionName="incumbent"
   solutionIndex="-1"
   objectiveValue="16"
   solutionTypeValue="3"
   solutionTypeString="primal"
   solutionStatusValue="101"
   solutionStatusString="integer optimal solution"
   solutionMethodString="mip"
   primalFeasible="1"
   dualFeasible="1"
   MIPNodes="0"
   MIPIterations="0"
   writeLevel="3"/>
 <quality
   epInt="1.0000000000000001e-05"
   epRHS="9.9999999999999995e-07"
   maxIntInfeas="0"
   maxPrimalInfeas="0"
   maxX="1"
   maxSlack="1"/>
 <variables>
  <variable name="Y(1,3)" index="2" value="1"/>
  <variable name="Y(2,4)" index="36" value="1"/>
  <variable name="Y(3,5)" index="70" value="1"/>
  <variable name="Y(4,7)" index="105" value="1"/>
  <variable name="Y(5,9)" index="140" value="1"/>
  <variable name="Y(6,10)" index="174" value="1"/>
  <variable name="Y(7,11)" index="208" value="1"/>
  <variable name="Y(8,12)" index="242" value="1"/>
  <variable name="Y(9,13)" index="276" value="1"/>
  <variable name="Y(10,14)" index="310" value="1"/>
  <variable name="Y(13,1)" index="396" value="1"/>
  <variable name="Y(14,2)" index="430" value="1"/>
  <variable name="Y(18,8)" index="568" value="1"/>
  <variable name="Y(25,15)" index="806" value="1"/>
  <variable name="Y(26,16)" index="840" value="1"/>
  <variable name="Y(27,17)" index="874" value="1"/>
  <variable name="X(1,3,1)" index="5379" value="1"/>
  <variable name="X(1,18,13)" index="5554" value="1"/>
  <variable name="X(2,3,11)" index="5715" value="1"/>
  <variable name="X(2,19,14)" index="5881" value="1"/>
  <variable name="X(3,1,13)" index="6043" value="1"/>
  <variable name="X(3,2,14)" index="6207" value="1"/>
  <variable name="X(3,4,2)" index="6358" value="1"/>
  <variable name="X(3,6,3)" index="6522" value="1"/>
  <variable name="X(3,20,1)" index="6683" value="1"/>
  <variable name="X(4,3,28)" index="6873" value="1"/>
  <variable name="X(4,21,2)" index="7010" value="1"/>
  <variable name="X(5,10,37)" index="7208" value="1"/>
  <variable name="X(5,22,3)" index="7337" value="1"/>
  <variable name="X(6,3,37)" index="7534" value="1"/>
  <variable name="X(6,12,4)" index="7664" value="1"/>
  <variable name="X(6,13,3)" index="7826" value="1"/>
  <variable name="X(7,11,62)" index="8048" value="1"/>
  <variable name="X(7,24,4)" index="8153" value="1"/>
  <variable name="X(8,12,68)" index="8380" value="1"/>
  <variable name="X(8,25,18)" index="8493" value="1"/>
  <variable name="X(9,12,78)" index="8716" value="1"/>
  <variable name="X(9,26,5)" index="8806" value="1"/>
  <variable name="X(10,5,3)" index="8967" value="1"/>
  <variable name="X(10,11,39)" index="9166" value="1"/>
  <variable name="X(10,13,37)" index="9327" value="1"/>
  <variable name="X(10,27,6)" index="9459" value="1"/>
  <variable name="X(11,7,4)" index="9620" value="1"/>
  <variable name="X(11,10,63)" index="9842" value="1"/>
  <variable name="X(11,12,62)" index="10004" value="1"/>
  <variable name="X(11,28,7)" index="10112" value="1"/>
  <variable name="X(12,6,62)" index="10330" value="1"/>
  <variable name="X(12,8,18)" index="10449" value="1"/>
  <variable name="X(12,9,5)" index="10599" value="1"/>
  <variable name="X(12,11,4)" index="10761" value="1"/>
  <variable name="X(12,13,76)" index="10996" value="1"/>
  <variable name="X(12,14,10)" index="11093" value="1"/>
  <variable name="X(12,15,25)" index="11271" value="1"/>
  <variable name="X(12,16,26)" index="11435" value="1"/>
  <variable name="X(12,17,27)" index="11599" value="1"/>
  <variable name="X(12,29,8)" index="11743" value="1"/>
  <variable name="X(13,6,37)" index="11935" value="1"/>
  <variable name="X(13,10,3)" index="12064" value="1"/>
  <variable name="X(13,12,40)" index="12264" value="1"/>
  <variable name="X(13,14,45)" index="12432" value="1"/>
  <variable name="X(13,30,9)" index="12559" value="1"/>
  <variable name="X(14,12,127)" index="12840" value="1"/>
  <variable name="X(14,13,128)" index="13004" value="1"/>
  <variable name="X(14,31,10)" index="13049" value="1"/>
  <variable name="X(15,12,133)" index="13335" value="1"/>
  <variable name="X(15,13,136)" index="13501" value="1"/>
  <variable name="X(15,32,25)" index="13553" value="1"/>
  <variable name="X(16,12,146)" index="13837" value="1"/>
  <variable name="X(16,13,148)" index="14002" value="1"/>
  <variable name="X(16,33,26)" index="14043" value="1"/>
  <variable name="X(17,12,156)" index="14336" value="1"/>
  <variable name="X(17,34,27)" index="14370" value="1"/>
 </variables>
</CPLEXSolution>
